<?xml version="1.0" encoding="UTF-8"?><osil xmlns="os.optimizationservices.org" xmlns:xsi="http://www.w3.org/2001/XMLSchema-instance" xsi:schemaLocation="os.optimizationservices.org http://www.optimizationservices.org/schemas/2.0/OSiL.xsd"><instanceHeader><name>alkyl</name></instanceHeader><instanceData><variables numberOfVariables="14"><var name="x2" ub="2"/><var name="x3" ub="1.6"/><var name="x4" ub="1.2"/><var name="x5" ub="5"/><var name="x6" ub="2"/><var name="x7" lb=".85" ub=".93"/><var name="x8" lb=".9" ub=".95"/><var name="x9" lb="3" ub="12"/><var name="x10" lb="1.2" ub="4"/><var name="x11" lb="1.45" ub="1.62"/><var name="x12" lb=".99" ub="1.01010101010101"/><var name="x13" lb=".99" ub="1.01010101010101"/><var name="x14" lb=".9" ub="1.11111111111111"/><var name="x15" lb=".99" ub="1.01010101010101"/></variables><objectives><obj maxOrMin="min" name="defObj_objvar" numberOfObjCoef="4"><coef idx="0">5.04</coef><coef idx="1">.35</coef><coef idx="2">1</coef><coef idx="4">3.36</coef></obj></objectives><constraints numberOfConstraints="7"><con name="e2" lb="0" ub="0"/><con name="e3" lb="0" ub="0"/><con name="e4" lb="0" ub="0"/><con name="e5" lb="0" ub="0"/><con name="e6" lb=".57425" ub=".57425"/><con name="e7" lb="35.82" ub="35.82"/><con name="e8" lb="-1.33" ub="-1.33"/></constraints><linearConstraintCoefficients numberOfValues="9"><start><el>0</el><el mult="2">3</el><el mult="2">5</el><el mult="3" incr="1">7</el></start><colIdx><el>0</el><el>3</el><el>4</el><el>1</el><el>4</el><el mult="3" incr="2">5</el><el>6</el></colIdx><value><el>-.819672131147541</el><el>1</el><el>-.819672131147541</el><el>10</el><el>1</el><el>-.325</el><el>-1.0980000000000002e-2</el><el>22.2</el><el>-3</el></value></linearConstraintCoefficients><quadraticCoefficients numberOfQuadraticTerms="6"><qTerm idx="-1" idxOne="3" idxTwo="6" coef="-6.3"/><qTerm idx="2" idxOne="0" idxTwo="7" coef="-1"/><qTerm idx="4" idxOne="6" idxTwo="11" coef="1"/><qTerm idx="4" idxOne="7" idxTwo="7" coef="3.8e-4"/><qTerm idx="5" idxOne="8" idxTwo="12" coef="1"/><qTerm idx="6" idxOne="9" idxTwo="13" coef="1"/></quadraticCoefficients><nonlinearExpressions numberOfNonlinearExpressions="2"><nl idx="1"><sum><product><sum><product><variable idx="3" coef="1e-2"/><variable idx="8"/></product><variable idx="2"/></sum><variable idx="5" coef="-1"/></product><variable idx="2" coef=".98"/></sum></nl><nl idx="3"><sum><product><variable idx="3"/><variable idx="10"/></product><product><sum><product><variable idx="7" coef="-6.7e-3"/><variable idx="7"/></product><variable idx="7" coef=".13167"/><number value="1.12"/></sum><variable idx="0" coef="-1"/></product></sum></nl></nonlinearExpressions></instanceData></osil>